57779
[32, 0, 26, 30, 24, 10, 44, 51, 1, 13, 8, 11, 17, 3, 29, 46, 53, 33, 52, 22, 20, 28, 21, 9, 15, 14, 38, 35, 45, 16, 47, 48, 25, 54, 27, 5, 2, 42, 39, 6, 36, 4, 34, 23, 19, 49, 37, 7, 43, 31, 40, 50, 12, 18, 41]
